(set-option :produce-models true)
(set-logic QF_UF)
(declare-fun p55() Bool)
(declare-fun p22() Bool)
(declare-fun p54() Bool)
(declare-fun p68() Bool)
(declare-fun p33() Bool)
(declare-fun p13() Bool)
(declare-fun p15() Bool)
(declare-fun p51() Bool)
(declare-fun p4() Bool)
(declare-fun p31() Bool)
(declare-fun p30() Bool)
(declare-fun p0() Bool)
(declare-fun p2() Bool)
(declare-fun p73() Bool)
(declare-fun p52() Bool)
(declare-fun p32() Bool)
(declare-fun p59() Bool)
(declare-fun p37() Bool)
(declare-fun p19() Bool)
(declare-fun p64() Bool)
(declare-fun p10() Bool)
(declare-fun p1() Bool)
(declare-fun p36() Bool)
(declare-fun p49() Bool)
(declare-fun p44() Bool)
(declare-fun p63() Bool)
(declare-fun p77() Bool)
(declare-fun p42() Bool)
(declare-fun p72() Bool)
(declare-fun p39() Bool)
(declare-fun p48() Bool)
(declare-fun p14() Bool)
(declare-fun p17() Bool)
(declare-fun p43() Bool)
(declare-fun p28() Bool)
(declare-fun p74() Bool)
(declare-fun p5() Bool)
(declare-fun p62() Bool)
(declare-fun p26() Bool)
(declare-fun p69() Bool)
(declare-fun p25() Bool)
(declare-fun p20() Bool)
(declare-fun p65() Bool)
(declare-fun p23() Bool)
(declare-fun p11() Bool)
(declare-fun p21() Bool)
(declare-fun p67() Bool)
(declare-fun p46() Bool)
(declare-fun p71() Bool)
(declare-fun p35() Bool)
(declare-fun p29() Bool)
(declare-fun p79() Bool)
(declare-fun p34() Bool)
(declare-fun p53() Bool)
(declare-fun p66() Bool)
(declare-fun p24() Bool)
(declare-fun p61() Bool)
(declare-fun p70() Bool)
(declare-fun p58() Bool)
(declare-fun p12() Bool)
(declare-fun p18() Bool)
(declare-fun p56() Bool)
(declare-fun p76() Bool)
(declare-fun p45() Bool)
(declare-fun p7() Bool)
(declare-fun p6() Bool)
(declare-fun p9() Bool)
(declare-fun p3() Bool)
(declare-fun p50() Bool)
(declare-fun p40() Bool)
(declare-fun p75() Bool)
(declare-fun p16() Bool)
(declare-fun p8() Bool)
(declare-fun p57() Bool)
(declare-fun p47() Bool)
(declare-fun p38() Bool)
(declare-fun p78() Bool)
(declare-fun p41() Bool)
(declare-fun p60() Bool)
(declare-fun p27() Bool)
(assert
(and (or p55 (not p22) p22) (or p54 (not p68) (not p33)) (or (not p13) p15 p51) (or p4 (not p31) p30) (or (not p0) (not p13) (not p2)) (or (not p73) (not p52) p32) (or p59 p37 p19) (or p64 p10 p1) (or (not p37) (not p36) p49) (or (not p54) (not p44) (not p63)) (or (not p77) (not p42) p72) (or p49 (not p39) p48) (or p77 p36 p14) (or (not p17) (not p43) p28) (or (not p74) (not p4) (not p5)) (or (not p44) (not p62) (not p26)) (or (not p44) p69 (not p25)) (or (not p20) (not p13) p65) (or (not p23) (not p11) p37) (or (not p11) (not p21) p67) (or p46 (not p71) (not p67)) (or (not p35) p29 p17) (or (not p43) p25 p79) (or p10 (not p36) (not p4)) (or (not p21) (not p34) p17) (or p5 p77 p53) (or (not p10) p21 (not p13)) (or p53 (not p29) p55) (or (not p72) (not p66) p49) (or (not p37) p24 p61) (or (not p20) p20 p71) (or (not p69) (not p48) p39) (or p49 p42 (not p37)) (or p33 p15 p43) (or p1 (not p70) (not p79)) (or p32 p19 p77) (or (not p58) (not p12) (not p66)) (or p67 (not p25) p34) (or p51 p18 p0) (or (not p56) p54 (not p62)) (or (not p13) (not p10) p28) (or (not p4) p77 (not p36)) (or (not p32) (not p54) p31) (or (not p35) p76 (not p58)) (or (not p45) (not p4) p25) (or (not p7) p19 p17) (or (not p2) p21 (not p6)) (or (not p49) (not p46) (not p23)) (or (not p28) (not p22) (not p23)) (or (not p9) p1 p67) (or (not p53) p22 (not p65)) (or p35 p35 p3) (or p50 (not p21) p35) (or (not p30) p40 p30) (or (not p4) (not p13) (not p63)) (or (not p32) (not p66) p32) (or p32 (not p14) p48) (or p31 p69 p45) (or p24 (not p2) p15) (or (not p75) (not p16) p33) (or p8 p50 (not p57)) (or p40 (not p61) (not p17)) (or (not p22) p19 (not p76)) (or (not p39) p77 (not p10)) (or p66 (not p26) p76) (or (not p70) p73 (not p11)) (or (not p76) p79 p47) (or p36 (not p33) p29) (or p36 p43 (not p45)) (or (not p38) (not p57) p1) (or (not p32) (not p73) (not p71)) (or p43 p45 (not p56)) (or (not p6) (not p78) (not p75)) (or p49 p28 p54) (or (not p12) p61 (not p63)) (or p12 p36 (not p3)) (or p8 (not p71) (not p73)) (or p28 p36 (not p26)) (or p18 p75 (not p35)) (or p64 (not p64) (not p15)) (or (not p57) (not p24) (not p35)) (or (not p36) p32 p40) (or (not p31) (not p7) p24) (or (not p66) (not p10) (not p18)) (or (not p45) p57 p52) (or (not p47) (not p59) (not p38)) (or p55 p66 (not p64)) (or (not p79) (not p57) p6) (or p3 (not p30) p73) (or (not p39) (not p25) (not p0)) (or p22 (not p15) (not p63)) (or (not p38) (not p36) p9) (or (not p73) (not p76) (not p61)) (or p39 (not p73) p54) (or p22 (not p76) (not p5)) (or p19 p58 (not p54)) (or p22 (not p65) (not p25)) (or (not p64) (not p29) p29) (or (not p41) p52 (not p32)) (or (not p12) p23 (not p9)) (or p43 (not p39) p14) (or (not p46) (not p78) p58) (or p60 (not p70) p20) (or (not p53) (not p10) p74) (or p29 p61 p58) (or (not p43) (not p20) p32) (or (not p78) p61 (not p50)) (or (not p25) p74 (not p40)) (or p26 p74 (not p43)) (or (not p77) (not p42) (not p19)) (or (not p36) (not p3) (not p26)) (or (not p38) p64 (not p14)) (or (not p30) p55 p11) (or p52 (not p56) p45) (or p18 (not p11) p54) (or p18 p21 (not p27)) (or p42 (not p15) p33) (or (not p4) (not p2) p22) (or (not p48) p35 p61) (or (not p4) (not p52) p18) (or p41 p13 (not p73)) (or (not p25) p37 (not p74)) (or (not p30) (not p27) (not p57)) (or (not p67) p67 p42) (or p24 (not p11) p41) (or p1 (not p40) p26) (or p14 p77 p13) (or (not p2) (not p4) (not p71)) (or (not p40) (not p42) p55) (or p75 (not p56) p13) (or p21 (not p18) p14) (or (not p68) (not p48) p62) (or (not p73) (not p11) p19) (or p22 (not p53) (not p23)) (or p52 (not p21) (not p68)) (or p4 (not p59) p48) (or p14 p49 p69) (or p13 (not p34) p16) (or (not p17) p47 (not p53)) (or (not p4) (not p10) (not p53)) (or (not p16) (not p72) (not p11)) (or p70 p2 p56) (or p37 (not p24) p7) (or (not p31) (not p25) p16) (or (not p8) p46 p58) (or (not p18) p21 p14) (or p58 p77 p7) (or (not p65) p51 (not p59)) (or p37 (not p52) p71) (or (not p7) (not p25) (not p25)) (or (not p75) (not p27) (not p35)) (or (not p59) p49 p1) (or p15 p73 p75) (or (not p34) p36 (not p70)) (or (not p63) (not p16) (not p24)) (or p76 (not p43) (not p1)) (or p15 p75 p24) (or p33 p23 p8) (or (not p11) (not p65) (not p65)) (or p3 p69 p41) (or p53 (not p67) p66) (or p68 p54 (not p6)) (or p11 (not p68) (not p21)) (or p24 (not p41) p72) (or p76 (not p20) p53) (or p59 (not p75) p7) (or p69 (not p3) p2) (or (not p50) p10 p53) (or (not p36) (not p55) (not p8)) (or p19 p34 (not p0)) (or p1 p66 (not p52)) (or p27 (not p1) (not p53)) (or p36 (not p62) (not p52)) (or (not p51) (not p70) p6) (or p33 (not p6) (not p68)) (or p54 p41 (not p50)) (or p19 (not p42) (not p77)) (or p44 (not p50) p39) (or (not p49) (not p27) p71) (or (not p74) p77 p13) (or p11 p68 (not p18)) (or (not p37) (not p44) (not p11)) (or p19 (not p41) p13) (or (not p79) (not p58) (not p77)) (or (not p49) (not p28) (not p59)) (or (not p45) (not p3) p17) (or (not p34) (not p11) (not p74)) (or (not p79) (not p23) (not p73)) (or (not p12) (not p57) p7) (or p50 (not p32) p13) (or (not p25) p36 (not p76)) (or p15 p9 p73) (or (not p40) p6 (not p39)) (or p70 p18 (not p53)) (or (not p23) p55 p64) (or p36 (not p12) p66) (or (not p63) p13 (not p3)) (or p9 (not p10) p67) (or (not p25) (not p26) (not p75)) (or p11 p20 (not p71)) (or p44 p43 p32) (or (not p26) (not p47) (not p77)) (or p43 p0 (not p75)) (or (not p24) (not p10) p52) (or p36 p7 (not p36)) (or p32 (not p19) p72) (or (not p36) (not p57) p64) (or p39 (not p74) (not p46)) (or (not p26) (not p40) (not p46)) (or (not p61) p28 (not p4)) (or (not p5) (not p31) p66) (or (not p40) p1 p46) (or (not p38) p25 (not p62)) (or (not p58) (not p71) p57) (or p22 p6 p23) (or (not p13) p12 p3) (or p74 (not p4) p37) (or p38 p13 (not p55)) (or (not p21) (not p23) p25) (or (not p22) (not p52) (not p15)) (or (not p42) p49 (not p49)) (or p65 p64 p4) (or p52 (not p50) (not p10)) (or p37 (not p30) p1) (or (not p78) p65 (not p64)) (or p45 p56 (not p6)) (or (not p6) p7 p45) (or (not p37) (not p55) p73) (or p62 p19 (not p71)) (or p60 p48 (not p57)) (or (not p29) (not p56) (not p74)) (or p44 (not p69) p33) (or (not p18) (not p73) (not p7)) (or p29 (not p37) (not p35)) (or p11 p21 p70) (or (not p9) p17 (not p31)) (or (not p59) (not p31) (not p68)) (or (not p40) (not p6) p27) (or p42 p77 (not p20)) (or (not p15) p9 (not p33)) (or (not p26) (not p50) (not p11)) (or (not p17) (not p78) p64) (or (not p66) p53 p20) (or p73 p10 (not p41)) (or (not p36) p66 (not p6)) (or (not p18) p70 p46) (or p30 (not p79) p46) (or (not p32) (not p67) p48) (or p23 p11 p69) (or (not p10) p15 (not p20)) (or (not p52) (not p17) (not p34)) (or p31 (not p13) p78) (or p37 p45 (not p19)) (or p26 (not p52) (not p9)) (or p39 p23 (not p40)) (or (not p15) (not p30) p78) (or p35 (not p30) (not p27)) (or p38 (not p69) p5) (or p3 (not p15) p7) (or p21 p21 (not p24)) (or p21 p16 p14) (or (not p32) (not p55) (not p4)) (or (not p44) (not p8) p44) (or p32 (not p8) (not p31)) (or p49 p61 p59) (or p8 (not p33) p77) (or (not p59) (not p15) (not p32)) (or p8 (not p66) p2) (or p69 p35 (not p51)) (or p72 p25 (not p41)) (or (not p14) (not p31) p78) (or p58 p1 (not p71)) (or p79 (not p69) p62) (or p37 p21 p40) (or p35 (not p42) (not p40)) (or p8 (not p4) p43) (or p0 p56 (not p70)) (or (not p9) p53 p38) (or p57 (not p49) p45) (or (not p52) (not p10) (not p30)) (or (not p4) p78 (not p23)) (or p35 p20 p3) (or (not p10) p21 p49) (or p36 p46 p19) (or p9 (not p11) (not p73)) (or (not p8) (not p22) p40) (or p48 (not p64) (not p17)) (or p25 (not p22) (not p44)) (or (not p19) (not p74) (not p19)) (or p59 p5 (not p14)) (or p11 (not p76) (not p73)) (or (not p65) p3 p27) (or p1 (not p3) (not p20)) (or (not p32) (not p77) p0) (or (not p68) (not p6) (not p44)) (or p36 p11 (not p13)) (or (not p38) p50 (not p71)) (or p7 (not p79) (not p9)) (or (not p25) p56 (not p7)) (or p3 (not p74) p40) (or p62 (not p15) (not p59)) (or p76 p42 (not p32)) (or p30 (not p41) (not p26)) (or (not p51) p32 p45) (or (not p20) p45 p53) (or (not p52) (not p28) p24) (or (not p68) (not p74) p12) (or p32 p76 (not p48)) (or (not p70) p73 (not p12)) (or (not p42) p32 p77) (or p1 p55 p49) (or p71 p14 (not p11)) (or p60 (not p10) p40) (or p79 (not p57) (not p66)) (or (not p51) (not p14) (not p35)) (or (not p19) (not p67) p73) (or (not p19) p7 (not p78)) (or (not p24) (not p68) p77) (or p58 (not p56) p66) (or (not p32) (not p2) (not p40)) (or p9 p65 (not p68)) (or (not p58) p19 (not p12)) (or (not p9) p74 p17) (or (not p53) p76 (not p79)) (or p44 (not p5) p4) (or p57 (not p12) p25) (or (not p32) (not p79) (not p54)) (or p52 (not p56) p23) (or p45 p38 p39) (or (not p23) p10 (not p33)) (or p17 p13 (not p70)) (or (not p4) (not p68) p46) (or (not p3) p61 (not p57)) (or (not p64) (not p67) p43) (or (not p5) p25 p35) (or p39 (not p64) p61) (or p38 (not p22) p59))
)
(check-sat)
(get-model)
